
Gurobi 9.5.2 (win64) logging started Mon Mar 27 20:25:34 2023

Set parameter LogFile to value "2023-03-27_20hr-25min-09sec/Nodes10_Arcs15_LocNodes8/Formulation-2Instance-5.log"
Set parameter TimeLimit to value 600
Set parameter IntFeasTol to value 1e-09
Set parameter DualReductions to value 0
Set parameter NonConvex to value 2
Gurobi Optimizer version 9.5.2 build v9.5.2rc0 (win64)
Thread count: 4 physical cores, 8 logical processors, using up to 8 threads
Optimize a model with 44 rows, 76 columns and 162 nonzeros
Model fingerprint: 0x82d80a56
Model has 25 quadratic objective terms
Model has 25 SOS constraints
Variable types: 68 continuous, 8 integer (8 binary)
Coefficient statistics:
  Matrix range     [2e-01, 2e+02]
  Objective range  [1e-01, 1e+03]
  QObjective range [4e-01, 7e+00]
  Bounds range     [1e+00, 1e+00]
  RHS range        [1e-01, 1e+03]
Presolve time: 0.00s
Presolved: 44 rows, 76 columns, 162 nonzeros
Presolved model has 25 SOS constraint(s)
Presolved model has 25 quadratic objective terms
Variable types: 68 continuous, 8 integer (8 binary)

Root relaxation: objective 1.651663e+05, 100 iterations, 0.00 seconds (0.00 work units)

    Nodes    |    Current Node    |     Objective Bounds      |     Work
 Expl Unexpl |  Obj  Depth IntInf | Incumbent    BestBd   Gap | It/Node Time

     0     0 165166.350    0    3          - 165166.350      -     -    0s
H    0     0                    164950.69820 165166.350  0.13%     -    0s

Cutting planes:
  Relax-and-lift: 1

Explored 1 nodes (100 simplex iterations) in 0.02 seconds (0.00 work units)
Thread count was 8 (of 8 available processors)

Solution count 1: 164951 

Optimal solution found (tolerance 1.00e-04)
Best objective 1.649506982045e+05, best bound 1.649508006008e+05, gap 0.0001%

User-callback calls 140, time in user-callback 0.00 sec
